(set-info :smt-lib-version 2.6)
(set-logic LRA)
(set-info :source |
   Monniaux, David; Quantifier Elimination by Lazy Model Enumeration, CAV 2010
|)
(set-info :category "random")
; ./Mjollnir_examples/B3/formula_067.m
(set-info :status unsat)
(assert
 (forall ((|v11:0| Real) )(forall ((|v10:1| Real) )(forall ((|v9:2| Real) )(forall ((|v8:3| Real) )(exists ((|v7:4| Real) )(exists ((|v6:5| Real) )(exists ((|v5:6| Real) )(exists ((|v4:7| Real) )(forall ((|v3:8| Real) )(forall ((|v2:9| Real) )(forall ((|v1:10| Real) )(forall ((|v0:11| Real) )(let ((?x313 (- 12)))
(let ((?x209 (- 14)))
(let ((?x458 (* ?x209 |v2:9|)))
(let ((?x10 5))
(let ((?x120 (* ?x10 |v0:11|)))
(let ((?x478 (+ (+ (+ (* (- 1) |v6:5|) (* 16 |v5:6|)) ?x120) ?x458)))
(let ((?x221 (- 17)))
(let ((?x66 (- 7)))
(let ((?x405 (* ?x66 |v8:3|)))
(let ((?x472 (+ (+ (* (- 19) |v3:8|) (* 4 |v1:10|)) (* (- 6) |v1:10|))))
(let ((?x34 6))
(let ((?x19 (- 19)))
(let ((?x207 (* ?x19 |v2:9|)))
(let ((?x466 (+ (+ (+ (* 17 |v8:3|) (* (- 6) |v5:6|)) ?x207) (* 20 |v4:7|))))
(let ((?x168 (- 9)))
(let ((?x74 (- 11)))
(let ((?x232 (* ?x74 |v8:3|)))
(let ((?x460 (+ (+ (+ (* (- 15) |v10:1|) (* 9 |v7:4|)) ?x458) ?x232)))
(let (($x481 (and (and (<= ?x460 ?x168) (<= ?x466 ?x34)) (and (<= (+ ?x472 ?x405) ?x221) (<= ?x478 ?x313)))))
(let ((?x452 (+ (+ (+ (* ?x313 |v2:9|) (* ?x66 |v1:10|)) (* 17 |v10:1|)) (* 12 |v2:9|))))
(let ((?x443 (+ (+ (* ?x313 |v1:10|) (* 9 |v3:8|)) (* 12 |v9:2|))))
(let ((?x63 10))
(let ((?x436 (+ (+ (+ (* (- 16) |v6:5|) (* 0 |v10:1|)) ?x120) (* 3 |v11:0|))))
(let ((?x430 (+ (+ (+ (* (- 1) |v3:8|) (* ?x74 |v9:2|)) (* ?x168 |v3:8|)) (* 14 |v0:11|))))
(let (($x455 (or (or (<= ?x430 ?x66) (<= ?x436 ?x63)) (or (<= (+ ?x443 (* 20 |v1:10|)) ?x313) (<= ?x452 ?x66)))))
(let ((?x143 15))
(let ((?x421 (+ (+ (* 18 |v0:11|) (* 9 |v7:4|)) (* (- 15) |v5:6|))))
(let ((?x412 (* ?x313 |v2:9|)))
(let ((?x38 18))
(let ((?x39 (* ?x38 |v0:11|)))
(let (($x414 (<= (+ (+ (+ (* ?x63 |v3:8|) (* 19 |v3:8|)) ?x39) ?x412) ?x19)))
(let (($x407 (<= (+ (+ (+ ?x207 (* ?x74 |v5:6|)) (* 11 |v1:10|)) ?x405) ?x10)))
(let ((?x187 9))
(let ((?x14 7))
(let ((?x240 (* ?x14 |v8:3|)))
(let ((?x90 (- 1)))
(let ((?x262 (* ?x90 |v4:7|)))
(let ((?x399 (+ (+ (+ (* 13 |v5:6|) (* 2 |v3:8|)) ?x262) ?x240)))
(let ((?x31 3))
(let ((?x375 (* ?x221 |v11:0|)))
(let ((?x394 (+ (+ (+ (* ?x90 |v10:1|) (* ?x221 |v8:3|)) (* 8 |v5:6|)) ?x375)))
(let ((?x43 (- 20)))
(let ((?x333 (* ?x43 |v11:0|)))
(let ((?x386 (+ (+ (+ (* 4 |v9:2|) (* (- 2) |v7:4|)) ?x333) (* (- 5) |v7:4|))))
(let ((?x79 8))
(let ((?x212 (* ?x90 |v11:0|)))
(let ((?x379 (+ (+ (+ ?x375 (* (- 10) |v7:4|)) (* 11 |v8:3|)) ?x212)))
(let ((?x27 13))
(let ((?x369 (* ?x27 |v5:6|)))
(let ((?x372 (+ (+ (+ (* 20 |v6:5|) (* (- 6) |v5:6|)) ?x369) (* ?x209 |v8:3|))))
(let ((?x46 (- 15)))
(let ((?x362 (+ (+ (* (- 16) |v1:10|) (* ?x168 |v8:3|)) (* 2 |v10:1|))))
(let (($x389 (and (and (<= (+ ?x362 (* ?x143 |v7:4|)) ?x46) (<= ?x372 ?x79)) (or (<= ?x379 ?x79) (<= ?x386 ?x90)))))
(let ((?x275 14))
(let ((?x353 (+ (+ (+ (* ?x66 |v7:4|) (* ?x187 |v7:4|)) (* (- 13) |v11:0|)) (* ?x46 |v8:3|))))
(let ((?x345 (+ (+ (+ (* ?x74 |v11:0|) (* (- 6) |v8:3|)) (* ?x19 |v0:11|)) (* ?x43 |v9:2|))))
(let ((?x337 (+ (+ (+ ?x333 (* (- 5) |v5:6|)) (* (- 3) |v0:11|)) (* ?x187 |v5:6|))))
(let ((?x138 17))
(let ((?x54 (- 3)))
(let ((?x55 (* ?x54 |v11:0|)))
(let ((?x329 (+ (+ (+ (* (- 5) |v9:2|) (* ?x313 |v9:2|)) ?x55) (* ?x187 |v1:10|))))
(let ((?x70 16))
(let ((?x320 (+ (+ (* (- 16) |v1:10|) (* ?x70 |v4:7|)) (* (- 2) |v8:3|))))
(let ((?x312 (+ (+ (+ (* ?x31 |v2:9|) (* (- 10) |v10:1|)) (* ?x31 |v7:4|)) (* ?x31 |v10:1|))))
(let ((?x114 11))
(let ((?x302 (* ?x114 |v1:10|)))
(let ((?x131 12))
(let ((?x132 (* ?x131 |v3:8|)))
(let (($x304 (<= (+ (+ (+ (* (- 18) |v7:4|) (* ?x54 |v8:3|)) ?x132) ?x302) ?x38)))
(let (($x332 (or (or $x304 (<= ?x312 ?x313)) (and (<= (+ ?x320 (* ?x221 |v9:2|)) ?x70) (<= ?x329 ?x138)))))
(let (($x418 (or (and $x332 (and (and (<= ?x337 ?x209) (<= ?x345 ?x31)) (<= ?x353 ?x275))) (or $x389 (or (and (<= ?x394 ?x31) (<= ?x399 ?x187)) (and $x407 $x414))))))
(let ((?x110 19))
(let ((?x291 (+ (+ (+ (* ?x70 |v0:11|) (* ?x143 |v8:3|)) (* ?x14 |v9:2|)) (* (- 16) |v4:7|))))
(let ((?x281 (+ (+ (* (- 16) |v2:9|) (* ?x275 |v11:0|)) (* (- 10) |v1:10|))))
(let ((?x107 (- 4)))
(let ((?x270 (+ (+ (+ ?x262 (* (- 18) |v9:2|)) (* ?x54 |v7:4|)) (* ?x143 |v2:9|))))
(let ((?x82 (- 2)))
(let ((?x194 (* ?x82 |v6:5|)))
(let ((?x260 (+ (+ (+ (* ?x187 |v9:2|) (* (- 5) |v5:6|)) (* ?x168 |v6:5|)) ?x194)))
(let (($x294 (and (and (<= ?x260 ?x131) (<= ?x270 ?x107)) (or (<= (+ ?x281 (* ?x107 |v6:5|)) ?x187) (<= ?x291 ?x110)))))
(let ((?x99 (- 6)))
(let ((?x252 (+ (+ (+ (* ?x19 |v10:1|) (* ?x114 |v8:3|)) (* ?x10 |v11:0|)) (* ?x107 |v1:10|))))
(let (($x245 (<= (+ (+ (+ (* ?x10 |v2:9|) ?x240) (* ?x209 |v3:8|)) (* ?x66 |v4:7|)) ?x19)))
(let ((?x24 4))
(let ((?x237 (+ (+ (+ (* 20 |v0:11|) ?x232) (* (- 16) |v6:5|)) (* ?x63 |v4:7|))))
(let ((?x227 (+ (+ (+ (* ?x110 |v5:6|) (* ?x221 |v4:7|)) (* ?x19 |v4:7|)) (* ?x38 |v6:5|))))
(let ((?x150 0))
(let (($x205 (<= (+ (+ (+ (* ?x46 |v4:7|) ?x39) (* ?x31 |v3:8|)) (* ?x90 |v1:10|)) ?x90)))
(let (($x217 (and $x205 (<= (+ (+ (+ ?x207 (* ?x209 |v1:10|)) ?x212) (* ?x168 |v9:2|)) ?x150))))
(let (($x197 (<= (+ (+ (+ (* ?x46 |v7:4|) (* ?x24 |v7:4|)) ?x194) (* ?x79 |v9:2|)) ?x79)))
(let ((?x189 (+ (+ (+ (* ?x34 |v10:1|) (* ?x79 |v7:4|)) (* ?x24 |v1:10|)) (* ?x187 |v11:0|))))
(let (($x296 (or (and (or (and (<= ?x189 ?x66) $x197) $x217) (<= ?x227 ?x74)) (and (and (and (<= ?x237 ?x24) $x245) (<= ?x252 ?x99)) $x294))))
(let ((?x175 (+ (+ (+ (* (- 13) |v11:0|) (* ?x38 |v3:8|)) (* ?x34 |v5:6|)) (* ?x43 |v3:8|))))
(let ((?x11 (* ?x10 |v6:5|)))
(let (($x169 (<= (+ (+ (+ (* ?x138 |v3:8|) (* ?x19 |v5:6|)) (* ?x90 |v10:1|)) ?x11) ?x168)))
(let ((?x158 (* ?x66 |v4:7|)))
(let ((?x159 (+ (+ (+ (* ?x150 |v9:2|) (* 20 |v7:4|)) (* ?x10 |v11:0|)) ?x158)))
(let ((?x147 (+ (+ (+ (* ?x138 |v4:7|) (* ?x131 |v5:6|)) (* ?x143 |v1:10|)) (* ?x38 |v4:7|))))
(let ((?x133 (+ (+ (+ (* (- 13) |v9:2|) (* ?x110 |v10:1|)) (* ?x24 |v4:7|)) ?x132)))
(let (($x122 (<= (+ (+ (+ (* ?x114 |v9:2|) (* ?x10 |v9:2|)) (* ?x54 |v0:11|)) ?x120) ?x34)))
(let ((?x109 (+ (+ (+ (* ?x99 |v3:8|) (* ?x99 |v4:7|)) (* ?x38 |v7:4|)) (* ?x107 |v0:11|))))
(let ((?x95 (+ (+ (+ (* ?x24 |v11:0|) (* ?x90 |v3:8|)) (* ?x24 |v11:0|)) (* ?x54 |v10:1|))))
(let (($x179 (or (or (and (<= ?x95 ?x46) (<= ?x109 ?x110)) (or $x122 (<= ?x133 ?x27))) (and (or (<= ?x147 ?x66) (<= ?x159 ?x82)) (and $x169 (<= ?x175 ?x114))))))
(let (($x83 (<= (+ (+ (+ |v4:7| (* ?x70 |v5:6|)) (* ?x74 |v0:11|)) (* ?x79 |v9:2|)) ?x82)))
(let ((?x65 (+ (+ (+ (* (- 5) |v0:11|) ?x55) (* (- 16) |v10:1|)) (* ?x63 |v1:10|))))
(let (($x47 (<= (+ (+ (+ (* ?x31 |v1:10|) (* ?x34 |v5:6|)) ?x39) (* ?x43 |v4:7|)) ?x46)))
(let (($x28 (<= (+ (+ (+ ?x11 (* ?x14 |v1:10|)) (* ?x19 |v5:6|)) (* ?x24 |v0:11|)) ?x27)))
(let (($x297 (and (and (and $x28 (or $x47 (and (<= ?x65 ?x66) $x83))) $x179) $x296)))
(and $x297 (or $x418 (or (<= (+ ?x421 (* ?x63 |v9:2|)) ?x143) (and $x455 $x481)))))))))))))))))))))))))))))))))))))))))))))))))))))))))))))))))))))))))))))))))))))))))))))))))))))))))))))))))
)
)
)
)
)
)
)
)
)
)
)
)
(check-sat)
(exit)

